(set-info :smt-lib-version 2.6)
(set-logic QF_SLIA)
(set-info :source |
Generated by: Denghang Hu
Generated on: 2023-04-14
Application: Evaluate string solvers
Target solver: Ostrich, Z3str3, CVC5
Description: The instance consists of:
(1) a regular membership predicate from the real world
(2) a regular membership predicate to sanitize danger letters in javascript such as <,>,&,",'
(3) a lower bound for string length
|)
(set-info :license "https://creativecommons.org/licenses/by/4.0/")
(set-info :category "industrial")
(set-info :status unknown)
        ;test regex df['var'] = df.sba.str.extract(r'A6(.{8})', expand=False)
(declare-const X String)
(assert (str.in_re X (re.++ (str.to_re "d") (re.++ (str.to_re "f") (re.++ (re.union (str.to_re "\u{27}") (re.union (str.to_re "v") (re.union (str.to_re "a") (re.union (str.to_re "r") (str.to_re "\u{27}"))))) (re.++ (str.to_re " ") (re.++ (str.to_re "=") (re.++ (str.to_re " ") (re.++ (str.to_re "d") (re.++ (str.to_re "f") (re.++ (re.diff re.allchar (str.to_re "\n")) (re.++ (str.to_re "s") (re.++ (str.to_re "b") (re.++ (str.to_re "a") (re.++ (re.diff re.allchar (str.to_re "\n")) (re.++ (str.to_re "s") (re.++ (str.to_re "t") (re.++ (str.to_re "r") (re.++ (re.diff re.allchar (str.to_re "\n")) (re.++ (str.to_re "e") (re.++ (str.to_re "x") (re.++ (str.to_re "t") (re.++ (str.to_re "r") (re.++ (str.to_re "a") (re.++ (str.to_re "c") (re.++ (str.to_re "t") (re.++ (re.++ (str.to_re "r") (re.++ (str.to_re "\u{27}") (re.++ (str.to_re "A") (re.++ (str.to_re "6") (re.++ ((_ re.loop 8 8) (re.diff re.allchar (str.to_re "\n"))) (str.to_re "\u{27}")))))) (re.++ (str.to_re ",") (re.++ (str.to_re " ") (re.++ (str.to_re "e") (re.++ (str.to_re "x") (re.++ (str.to_re "p") (re.++ (str.to_re "a") (re.++ (str.to_re "n") (re.++ (str.to_re "d") (re.++ (str.to_re "=") (re.++ (str.to_re "F") (re.++ (str.to_re "a") (re.++ (str.to_re "l") (re.++ (str.to_re "s") (str.to_re "e")))))))))))))))))))))))))))))))))))))))))
; sanitize danger characters:  < > ' " &
(assert (not (str.in_re X (re.++ re.all (re.union (str.to_re "\u{3c}") (str.to_re "\u{3e}") (str.to_re "\u{27}") (str.to_re "\u{22}") (str.to_re "\u{26}")) re.all))))
(assert (< 20 (str.len X)))
(check-sat)
(exit)
